proyfinal/src/viki/013/andrea/andrea-localstore/experimentInOfficeAgust.take6/worker_3/c6cd1cce-9dc4-49f0-af27-0b2f978aa7d6.als.cnf.out
Reading from standard input... Use '--help' for help.
============================[ Problem Statistics ]=============================
|                                                                             |
|  Number of variables:         87638                                         |
|  Number of clauses:          161767                                         |
|  Parse time:                   0.03 s                                       |
|                                                                             |
============================[ Search Statistics ]==============================
| Conflicts |          ORIGINAL         |          LEARNT          | Progress |
|           |    Vars  Clauses Literals |    Limit  Clauses Lit/Cl |          |
===============================================================================
|       100 |   62148   104508   260645 |    38319      100     12 | 29.086 % |
|       250 |   62147   104464   260555 |    42151      249     37 | 29.087 % |
|       475 |   62147   104464   260555 |    46366      474     46 | 29.087 % |
|       812 |   62147   104464   260555 |    51003      811     60 | 29.087 % |
|      1318 |   62147   104464   260555 |    56103     1317     62 | 29.087 % |
|      2077 |   62078   104211   259888 |    61714     2028     70 | 29.165 % |
|      3216 |   62078   104211   259888 |    67885     3167     66 | 29.165 % |
|      4924 |   62074   104195   259844 |    74674     4783     73 | 29.170 % |
|      7486 |   62056   104121   259673 |    82141     7344     84 | 29.191 % |
|     11330 |   61948   103685   258650 |    90355    11179     87 | 29.314 % |
|     17096 |   52810    76238   191383 |    99391    16163     85 | 39.741 % |
===============================================================================
restarts              : 63
conflicts             : 17546          (7445 /sec)
decisions             : 51915          (0.00 % random) (22028 /sec)
propagations          : 22627178       (9601013 /sec)
conflict literals     : 1449613        (53.04 % deleted)
Memory used           : 39.39 MB
CPU time              : 2.35675 s

UNSATISFIABLE
